961777
961777
961777
961777
952819
943130
938000
938000
925785
925785
925785
924690
920155
914873
914873
909291
909291
909291
903100
903100
894932
892452
886007
886007
878644
878644
874090
874090
870686
867456
867456
867456
867456
866853
866853
866183
858736
852108
852108
852108
852108
852108
852108
841950
841950
841950
839603
838754
838754
837931
837931
837931
837931
826917
826917
826917
826917
826917
819985
818508
818508
818508
816910
809943
809943
798904
797189
797189
786943
782638
782638
782638
782638
782638
782638
776153
776153
776153
767723
767723
767723
767723
761807
761807
761807
761807
761807
756828
756828
749658
747774
747774
747774
747774
745375
745375
745375
745375
745375
745375
